COLUMNS

passenger_count
pickup_ID
dropoff_ID
request_time_sec
pickup_district
dropoff_district
LDuals
IDuals
vehicle_ID
pick_position
drop_position

REQUESTS_INFO
1      526       671       31148     52        280       159       159       42        1         2         
1      875       650       31069     291       189       318       318       67        1         2         
2      1373      1281      31135     129       192       254       254       74        1         3         
1      864       48        31109     290       98        215       215       142       1         2         
1      1091      828       31120     291       291       250       250       146       1         3         
1      308       554       31155     127       189       176       176       151       1         3         
2      679       811       31160     290       290       97        97        162       1         4         
1      824       545       31104     291       52        197       197       176       1         2         
1      794       743       31111     290       290       193       193       184       1         3         
1      980       699       31093     291       290       300       300       191       1         2         
2      688       257       31158     131       87        106       106       193       1         3         
3      1014      906       31126     84        290       201       201       196       1         2         
3      916       209       31117     291       266       218       218       221       1         3         
2      1155      1264      31066     129       192       313       313       263       1         2         
1      789       894       31158     290       291       109       109       274       1         3         
1      489       675       31148     199       189       122       122       299       1         3         
2      961       896       31112     291       291       209       209       309       1         4         
1      395       135       31141     100       286       139       139       318       1         3         
1      973       700       31126     84        290       176       176       355       1         4         
1      903       627       31162     290       189       172       172       357       1         3         
2      926       1218      31087     290       84        294       294       367       1         2         
1      881       722       31129     290       290       228       228       383       1         2         
1      905       949       31169     290       290       176       176       406       1         2         
3      688       257       31158     131       87        151       151       411       1         2         
1      238       332       31161     87        87        191       191       427       1         2         
1      1001      676       31163     291       189       248       248       430       1         3         
1      308       134       31161     127       9         170       170       439       1         3         
1      336       62        31094     277       98        225       225       499       1         3         
1      354       572       31129     119       131       142       142       513       1         3         
1      927       748       31153     290       290       207       207       555       1         3         
1      827       699       31146     291       290       169       169       571       1         4         
3      1025      676       31081     291       189       350       350       579       1         2         
3      748       466       31122     290       199       201       201       583       1         2         
1      1090      1254      31090     291       84        212       212       588       1         4         
3      1025      1004      31099     291       291       332       332       643       1         2         
1      419       139       31153     168       57        147       147       664       1         2         
1      893       735       31151     291       131       189       189       665       1         2         
1      1087      1263      31167     291       192       172       172       722       1         4         
1      1106      1206      31165     291       192       175       175       722       2         5         
2      929       1032      31041     290       84        243       243       726       1         2         
1      735       193       31051     131       266       215       215       733       1         3         
2      726       782       31156     290       291       150       150       766       1         3         
1      726       556       31165     290       199       119       119       766       2         4         
1      1087      850       31156     291       291       199       199       772       1         3         
3      444       702       31161     168       290       105       105       788       1         3         
1      200       696       31142     87        189       178       178       803       1         3         
1      1022      946       31018     291       290       384       384       809       1         2         
1      433       526       31132     52        52        158       158       810       1         2         
3      925       749       31165     290       290       198       198       821       1         2         
1      1196      828       31137     129       291       224       224       836       1         3         
4      816       910       31122     290       290       209       209       852       1         2         
4      873       788       31154     291       290       197       197       860       1         2         
4      744       849       31168     290       291       110       110       861       1         2         
1      969       838       31071     290       290       276       276       867       1         2         
1      914       719       31130     291       189       227       227       873       1         3         
1      888       527       31103     290       52        228       228       874       1         3         
1      810       760       31143     290       291       153       153       878       1         3         
3      748       852       31150     290       291       173       173       988       1         2         
3      1004      485       31159     291       189       287       287       996       1         2         
2      598       484       31144     189       189       144       144       997       1         3         
2      677       908       31140     189       290       126       126       1008      1         2         
1      881       940       31080     290       291       276       276       1045      1         3         
1      770       605       31143     290       189       180       180       1070      1         2         
3      993       961       30978     84        291       412       412       1072      1         2         
3      748       852       31150     290       291       173       173       1079      1         2         
1      462       460       31151     189       189       95        95        1114      1         2         
3      1148      1032      31113     291       84        226       226       1146      1         2         
1      791       669       31162     290       280       140       140       1155      1         3         
1      369       579       31155     52        189       99        99        1162      1         3         
1      550       616       31145     189       131       129       129       1166      1         2         
1      888       946       30881     290       290       446       446       1175      1         2         
1      768       670       31167     290       280       130       130       1181      1         4         
1      1065      805       31122     291       291       255       255       1185      1         2         
1      790       721       31161     290       290       116       116       1202      1         2         
3      336       607       31164     277       189       188       188       1203      1         2         
1      926       680       31117     290       290       264       264       1208      1         2         
3      481       669       31157     189       280       129       129       1216      1         3         
2      1004      485       31159     291       189       287       287       1221      1         2         
3      926       766       31129     290       290       235       235       1238      1         2         
1      790       674       31155     290       189       122       122       1244      1         2         
1      654       578       31165     189       189       117       117       1249      1         3         
3      908       948       31090     290       290       276       276       1250      1         2         
1      721       835       31166     290       290       94        94        1260      1         2         
1      928       749       31073     290       290       310       310       1263      1         2         
1      928       1043      31034     290       291       349       349       1285      1         2         
2      916       209       31117     291       266       218       218       1298      1         3         
1      914       738       31125     291       189       237       237       1367      1         2         
1      1090      1023      31168     291       291       260       260       1374      1         2         
1      841       66        31087     290       98        189       189       1376      1         3         
1      550       737       31164     189       189       123       123       1391      1         2         
1      852       718       31126     291       189       215       215       1401      1         2         
1      1107      718       31141     291       189       163       163       1416      1         4         
3      1025      676       31081     291       189       350       350       1416      2         3         
1      915       719       31155     291       189       182       182       1435      1         4         
3      961       896       31112     291       291       306       306       1435      2         3         
1      1066      603       31157     291       189       169       169       1444      1         4         
1      236       771       31161     87        290       174       174       1460      1         2         
1      365       250       31124     299       127       163       163       1470      1         2         
1      946       442       31132     290       168       249       249       1496      1         3         
1      581       983       31170     189       291       0         0         0         0         0         
1      668       727       31170     280       290       0         0         0         0         0         
2      984       947       31170     291       290       0         0         0         0         0         
3      984       947       31170     291       290       0         0         0         0         0         
2      632       48        31170     189       98        0         0         0         0         0         
3      632       48        31170     189       98        0         0         0         0         0         
1      794       948       31171     290       290       0         0         0         0         0         
1      906       626       31171     290       189       0         0         0         0         0         
3      946       937       31171     290       291       0         0         0         0         0         
1      972       704       31171     290       290       0         0         0         0         0         
1      818       534       31171     290       199       0         0         0         0         0         
1      486       599       31171     199       280       0         0         0         0         0         
2      475       555       31171     52        199       0         0         0         0         0         
2      864       749       31171     290       290       0         0         0         0         0         
1      200       267       31171     87        266       0         0         0         0         0         
1      926       649       31171     290       189       0         0         0         0         0         
1      197       488       31171     178       199       0         0         0         0         0         
1      1128      882       31172     291       290       0         0         0         0         0         
1      623       616       31172     280       131       0         0         0         0         0         
1      757       551       31172     131       189       0         0         0         0         0         
1      115       834       31173     9         290       0         0         0         0         0         
1      391       697       31173     52        189       0         0         0         0         0         
1      455       330       31173     52        127       0         0         0         0         0         
1      885       10        31173     290       98        0         0         0         0         0         
1      557       459       31174     189       189       0         0         0         0         0         
1      510       506       31174     199       189       0         0         0         0         0         
1      62        20        31174     98        98        0         0         0         0         0         
1      1128      662       31174     291       131       0         0         0         0         0         
2      718       824       31175     189       291       0         0         0         0         0         
3      718       824       31175     189       291       0         0         0         0         0         
1      240       508       31175     87        199       0         0         0         0         0         
3      287       391       31175     299       52        0         0         0         0         0         
1      695       669       31175     189       280       0         0         0         0         0         
1      556       670       31175     199       280       0         0         0         0         0         
1      338       483       31175     277       189       0         0         0         0         0         
2      693       756       31176     280       131       0         0         0         0         0         
3      665       393       31176     131       52        0         0         0         0         0         
3      665       393       31176     131       52        0         0         0         0         0         
3      693       756       31176     280       131       0         0         0         0         0         
2      812       439       31177     290       189       0         0         0         0         0         
3      812       439       31177     290       189       0         0         0         0         0         
1      894       649       31177     291       189       0         0         0         0         0         
1      478       478       31177     52        52        0         0         0         0         0         
1      804       1011      31177     291       84        0         0         0         0         0         
1      33        510       31178     98        199       0         0         0         0         0         
1      723       771       31178     290       290       0         0         0         0         0         
1      213       511       31178     266       199       0         0         0         0         0         
2      760       719       31178     291       189       0         0         0         0         0         
1      118       45        31178     286       98        0         0         0         0         0         
1      756       673       31178     131       189       0         0         0         0         0         
2      549       697       31179     52        189       0         0         0         0         0         
1      584       672       31179     189       189       0         0         0         0         0         
2      1087      981       31179     291       291       0         0         0         0         0         
1      870       1065      31179     291       291       0         0         0         0         0         
2      621       624       31180     280       189       0         0         0         0         0         
1      603       697       31180     189       189       0         0         0         0         0         
1      526       616       31180     52        131       0         0         0         0         0         
1      308       118       31180     127       286       0         0         0         0         0         
1      721       1047      31180     290       291       0         0         0         0         0         
1      959       1208      31180     291       192       0         0         0         0         0         
1      760       596       31180     291       131       0         0         0         0         0         
2      415       478       31180     100       52        0         0         0         0         0         
2      526       409       31180     52        52        0         0         0         0         0         
1      345       577       31181     299       189       0         0         0         0         0         
1      393       532       31181     52        199       0         0         0         0         0         
1      700       605       31181     290       189       0         0         0         0         0         
1      431       479       31181     52        52        0         0         0         0         0         
1      549       733       31181     52        131       0         0         0         0         0         
2      410       367       31182     52        299       0         0         0         0         0         
3      410       367       31182     52        299       0         0         0         0         0         
1      309       693       31182     127       280       0         0         0         0         0         
1      859       680       31183     290       290       0         0         0         0         0         
2      600       651       31183     280       189       0         0         0         0         0         
1      354       570       31184     119       52        0         0         0         0         0         
1      623       267       31184     280       266       0         0         0         0         0         
1      1109      1181      31184     291       84        0         0         0         0         0         
1      463       580       31184     168       189       0         0         0         0         0         
1      665       315       31184     131       277       0         0         0         0         0         
3      804       116       31184     291       9         0         0         0         0         0         
2      804       116       31184     291       9         0         0         0         0         0         
1      236       372       31184     87        119       0         0         0         0         0         
2      207       624       31184     286       189       0         0         0         0         0         
2      1044      1248      31185     291       129       0         0         0         0         0         
1      531       154       31185     189       286       0         0         0         0         0         
1      723       507       31185     290       189       0         0         0         0         0         
1      937       1148      31185     291       291       0         0         0         0         0         
1      526       544       31186     52        52        0         0         0         0         0         
1      1386      473       31186     129       52        0         0         0         0         0         
2      814       555       31186     290       199       0         0         0         0         0         
1      584       512       31186     189       199       0         0         0         0         0         
2      756       416       31186     131       100       0         0         0         0         0         
3      756       416       31186     131       100       0         0         0         0         0         
2      959       1209      31187     291       192       0         0         0         0         0         
1      152       555       31187     9         199       0         0         0         0         0         
1      285       526       31187     299       52        0         0         0         0         0         
1      795       295       31187     290       87        0         0         0         0         0         
1      814       577       31187     290       189       0         0         0         0         0         
1      580       35        31187     189       98        0         0         0         0         0         
3      479       291       31187     52        87        0         0         0         0         0         
1      927       535       31187     290       189       0         0         0         0         0         
1      738       665       31188     189       131       0         0         0         0         0         
2      947       767       31188     290       290       0         0         0         0         0         
1      311       672       31188     87        189       0         0         0         0         0         
3      291       544       31189     87        52        0         0         0         0         0         
2      291       544       31189     87        52        0         0         0         0         0         
3      64        651       31189     98        189       0         0         0         0         0         
2      64        651       31189     98        189       0         0         0         0         0         
1      1098      1149      31189     84        291       0         0         0         0         0         
1      1065      673       31189     291       189       0         0         0         0         0         
1      618       182       31190     131       178       0         0         0         0         0         
1      598       624       31190     189       189       0         0         0         0         0         
1      749       373       31190     290       119       0         0         0         0         0         
1      768       969       31190     290       290       0         0         0         0         0         
3      533       372       31190     199       119       0         0         0         0         0         
1      410       694       31190     52        189       0         0         0         0         0         
2      533       372       31190     199       119       0         0         0         0         0         
1      1107      1047      31191     291       291       0         0         0         0         0         
1      277       332       31191     87        87        0         0         0         0         0         
1      413       629       31191     52        189       0         0         0         0         0         
1      527       650       31191     52        189       0         0         0         0         0         
1      747       937       31191     290       291       0         0         0         0         0         
1      345       597       31191     299       131       0         0         0         0         0         
2      78        593       31191     9         52        0         0         0         0         0         
3      505       673       31191     52        189       0         0         0         0         0         
3      505       673       31191     52        189       0         0         0         0         0         
2      946       504       31191     290       52        0         0         0         0         0         
3      946       504       31191     290       52        0         0         0         0         0         
2      607       554       31192     189       189       0         0         0         0         0         
1      665       673       31192     131       189       0         0         0         0         0         
1      929       1446      31192     290       129       0         0         0         0         0         
1      345       578       31192     299       189       0         0         0         0         0         
2      462       579       31192     189       189       0         0         0         0         0         
1      331       461       31192     127       189       0         0         0         0         0         
3      645       616       31192     280       131       0         0         0         0         0         
1      306       118       31192     299       286       0         0         0         0         0         
1      814       696       31192     290       189       0         0         0         0         0         
1      928       628       31193     290       189       0         0         0         0         0         
2      1168      968       31193     291       290       0         0         0         0         0         
1      630       555       31193     189       199       0         0         0         0         0         
1      311       251       31193     87        127       0         0         0         0         0         
3      881       415       31193     290       100       0         0         0         0         0         
3      881       415       31193     290       100       0         0         0         0         0         
3      959       710       31193     291       131       0         0         0         0         0         
3      959       710       31193     291       131       0         0         0         0         0         
1      1168      719       31194     291       189       0         0         0         0         0         
1      369       152       31194     52        9         0         0         0         0         0         
1      937       627       31195     291       189       0         0         0         0         0         
2      889       504       31195     290       52        0         0         0         0         0         
3      693       639       31195     280       131       0         0         0         0         0         
2      693       639       31195     280       131       0         0         0         0         0         
1      791       651       31195     290       189       0         0         0         0         0         
1      255       10        31195     87        98        0         0         0         0         0         
1      390       532       31196     52        199       0         0         0         0         0         
1      675       727       31196     189       290       0         0         0         0         0         
3      864       33        31196     290       98        0         0         0         0         0         
1      443       463       31196     168       168       0         0         0         0         0         
1      645       557       31196     280       189       0         0         0         0         0         
1      628       488       31196     189       199       0         0         0         0         0         
3      1132      1566      31196     291       296       0         0         0         0         0         
2      460       553       31196     189       189       0         0         0         0         0         
2      556       34        31196     199       98        0         0         0         0         0         
1      915       699       31197     291       290       0         0         0         0         0         
1      1128      768       31197     291       290       0         0         0         0         0         
1      557       415       31197     189       100       0         0         0         0         0         
2      653       20        31197     189       98        0         0         0         0         0         
2      526       617       31197     52        131       0         0         0         0         0         
2      311       526       31197     87        52        0         0         0         0         0         
2      1188      1044      31197     192       291       0         0         0         0         0         
3      389       720       31197     299       290       0         0         0         0         0         
3      389       720       31197     299       290       0         0         0         0         0         
1      859       1026      31198     290       291       0         0         0         0         0         
1      968       578       31198     290       189       0         0         0         0         0         
1      248       350       31198     266       127       0         0         0         0         0         
1      814       651       31198     290       189       0         0         0         0         0         
1      949       512       31199     290       199       0         0         0         0         0         
1      618       732       31199     131       131       0         0         0         0         0         
1      161       310       31199     178       127       0         0         0         0         0         
